33D32945 STP File, STP Format Version 1.0

SECTION Comment
Name    "Series C" 
Creator "A. M. Costa" 
Format  "Z.H. Fu and J. K. Hao"
Remark  "Sparse graph with random weights"
#TotalEdgeCost 5522
#BudgetFraction 50
END 

SECTION Graph 
Nodes 500 
Edges 1000 
Root 1
Budget 110
HopLimit 5
E 1 126 9 
E 1 262 6 
E 1 432 6 
E 2 284 2 
E 2 298 5 
E 2 396 4 
E 2 433 2 
E 3 61 7 
E 3 164 4 
E 3 177 2 
E 3 248 6 
E 3 385 9 
E 3 396 8 
E 3 464 8 
E 4 74 1 
E 4 276 8 
E 4 488 8 
E 4 495 10 
E 5 172 2 
E 6 233 4 
E 6 247 2 
E 6 370 9 
E 6 393 2 
E 6 443 4 
E 7 14 10 
E 7 22 10 
E 7 73 10 
E 7 364 9 
E 8 108 10 
E 8 215 4 
E 9 64 2 
E 9 121 8 
E 9 351 2 
E 9 474 5 
E 10 223 10 
E 10 464 10 
E 10 491 8 
E 11 133 3 
E 11 151 4 
E 11 222 2 
E 11 372 10 
E 12 24 3 
E 12 139 9 
E 12 310 8 
E 12 366 3 
E 13 39 9 
E 13 228 10 
E 13 287 7 
E 13 398 5 
E 13 433 4 
E 13 460 5 
E 13 463 10 
E 14 234 1 
E 14 442 3 
E 15 132 3 
E 15 357 3 
E 15 378 6 
E 15 453 8 
E 15 454 9 
E 15 494 7 
E 16 119 9 
E 16 209 5 
E 16 418 7 
E 16 429 8 
E 17 196 8 
E 17 288 10 
E 17 355 10 
E 17 441 7 
E 18 190 1 
E 18 320 9 
E 19 33 9 
E 19 278 9 
E 19 401 4 
E 19 449 10 
E 19 500 5 
E 20 117 4 
E 20 292 2 
E 20 357 10 
E 20 468 6 
E 21 182 3 
E 21 305 10 
E 21 466 8 
E 22 33 6 
E 22 118 4 
E 22 437 7 
E 23 50 8 
E 23 140 8 
E 23 483 10 
E 24 478 3 
E 25 60 6 
E 25 187 1 
E 25 358 1 
E 25 383 1 
E 26 114 2 
E 26 181 5 
E 27 221 7 
E 27 274 3 
E 27 383 7 
E 27 413 9 
E 28 235 10 
E 28 303 10 
E 28 306 4 
E 28 374 10 
E 28 385 4 
E 28 436 4 
E 29 252 3 
E 29 268 6 
E 29 293 1 
E 29 316 5 
E 29 447 9 
E 29 459 9 
E 30 312 7 
E 30 341 6 
E 30 416 1 
E 31 115 10 
E 31 176 10 
E 31 209 1 
E 31 371 3 
E 32 73 10 
E 32 240 6 
E 32 249 8 
E 32 298 9 
E 32 424 9 
E 32 465 6 
E 32 482 4 
E 33 219 10 
E 34 215 9 
E 34 320 3 
E 35 409 10 
E 36 129 10 
E 36 188 5 
E 36 374 7 
E 36 382 2 
E 37 148 7 
E 37 176 9 
E 37 435 4 
E 38 70 6 
E 38 127 2 
E 38 146 5 
E 38 293 2 
E 38 429 2 
E 39 287 1 
E 39 383 10 
E 40 44 6 
E 40 80 9 
E 40 100 4 
E 40 369 3 
E 40 414 7 
E 40 480 8 
E 41 201 8 
E 41 269 6 
E 42 257 1 
E 42 332 4 
E 42 458 3 
E 43 227 5 
E 43 379 4 
E 44 98 8 
E 44 108 10 
E 44 426 8 
E 44 441 8 
E 44 469 3 
E 45 192 8 
E 45 298 2 
E 45 327 8 
E 45 454 5 
E 46 109 3 
E 46 131 4 
E 46 181 3 
E 46 273 2 
E 46 337 5 
E 46 468 6 
E 47 175 3 
E 47 185 7 
E 48 50 1 
E 48 100 7 
E 48 148 8 
E 48 263 8 
E 48 321 7 
E 48 489 8 
E 49 72 3 
E 49 198 2 
E 49 254 2 
E 49 320 9 
E 49 379 4 
E 49 380 5 
E 50 164 1 
E 50 208 2 
E 50 226 3 
E 50 416 1 
E 51 273 7 
E 52 81 9 
E 52 99 9 
E 52 142 4 
E 52 157 2 
E 52 291 4 
E 52 304 5 
E 52 393 6 
E 52 397 9 
E 52 483 9 
E 53 197 9 
E 53 303 2 
E 53 309 4 
E 54 62 2 
E 54 327 3 
E 54 433 3 
E 55 67 1 
E 55 359 4 
E 55 409 8 
E 55 498 10 
E 56 138 9 
E 56 410 8 
E 57 94 5 
E 57 111 9 
E 57 245 10 
E 57 273 4 
E 57 495 6 
E 58 86 10 
E 58 204 4 
E 58 226 6 
E 58 254 8 
E 58 325 7 
E 59 98 3 
E 59 163 7 
E 59 176 8 
E 59 201 6 
E 59 204 5 
E 59 217 7 
E 59 281 5 
E 59 367 2 
E 59 412 1 
E 59 443 1 
E 59 452 6 
E 59 499 6 
E 60 148 5 
E 60 226 2 
E 60 367 9 
E 60 396 9 
E 61 137 7 
E 61 251 3 
E 62 163 8 
E 62 293 9 
E 62 386 7 
E 63 66 10 
E 63 77 8 
E 63 119 7 
E 63 196 3 
E 63 212 8 
E 63 226 10 
E 63 358 8 
E 63 395 8 
E 64 94 6 
E 64 140 9 
E 64 224 9 
E 64 432 5 
E 65 76 4 
E 65 168 3 
E 65 351 3 
E 65 412 10 
E 66 170 9 
E 66 484 7 
E 67 159 9 
E 67 412 2 
E 68 307 5 
E 68 331 1 
E 68 367 9 
E 69 75 6 
E 69 160 10 
E 69 261 2 
E 70 126 9 
E 70 455 8 
E 71 398 5 
E 71 449 4 
E 72 207 1 
E 72 253 5 
E 72 274 9 
E 73 126 5 
E 73 152 7 
E 73 184 8 
E 73 265 7 
E 73 313 3 
E 73 343 2 
E 73 464 5 
E 74 118 5 
E 74 131 10 
E 74 206 7 
E 74 350 7 
E 74 463 2 
E 74 489 9 
E 75 226 8 
E 75 301 6 
E 76 143 10 
E 76 440 7 
E 76 497 9 
E 77 238 8 
E 77 307 7 
E 78 106 9 
E 78 179 3 
E 78 211 1 
E 78 236 1 
E 78 254 4 
E 78 322 2 
E 78 329 2 
E 78 477 5 
E 79 121 8 
E 79 323 7 
E 79 333 2 
E 80 184 8 
E 80 250 3 
E 80 261 6 
E 80 430 6 
E 81 384 5 
E 81 488 4 
E 82 210 3 
E 82 218 3 
E 82 430 3 
E 82 463 5 
E 83 225 4 
E 84 188 3 
E 85 265 3 
E 85 271 2 
E 85 344 1 
E 86 151 5 
E 86 239 9 
E 87 440 4 
E 88 171 5 
E 89 199 5 
E 89 308 1 
E 89 321 1 
E 89 376 3 
E 89 466 5 
E 89 485 9 
E 90 274 9 
E 90 281 5 
E 90 372 9 
E 90 487 1 
E 91 374 5 
E 92 114 7 
E 92 178 1 
E 92 200 4 
E 92 256 8 
E 92 409 4 
E 92 415 4 
E 93 224 1 
E 93 369 10 
E 93 466 5 
E 94 301 1 
E 95 120 6 
E 95 257 6 
E 95 350 5 
E 96 158 8 
E 96 234 3 
E 96 240 10 
E 96 243 5 
E 96 364 5 
E 96 467 1 
E 97 280 10 
E 97 289 6 
E 97 370 2 
E 98 377 2 
E 98 410 7 
E 98 493 2 
E 98 499 3 
E 99 283 2 
E 99 479 6 
E 100 117 7 
E 100 123 10 
E 100 379 9 
E 100 474 1 
E 101 115 2 
E 101 340 4 
E 102 105 6 
E 102 188 1 
E 102 248 8 
E 102 413 6 
E 103 106 3 
E 103 152 1 
E 103 472 3 
E 104 143 2 
E 104 482 8 
E 105 217 2 
E 105 427 10 
E 106 172 10 
E 106 238 8 
E 106 290 5 
E 106 350 1 
E 107 297 2 
E 107 371 7 
E 107 390 1 
E 107 399 3 
E 107 440 8 
E 108 228 3 
E 108 281 4 
E 108 375 9 
E 109 350 5 
E 109 366 3 
E 110 349 9 
E 110 363 3 
E 110 389 2 
E 110 418 2 
E 110 481 1 
E 111 175 5 
E 111 188 1 
E 111 391 1 
E 111 402 4 
E 111 474 8 
E 112 129 7 
E 112 298 4 
E 112 334 7 
E 113 352 5 
E 113 462 5 
E 113 490 4 
E 114 352 2 
E 114 389 2 
E 114 470 10 
E 114 492 4 
E 115 176 4 
E 115 181 7 
E 115 190 2 
E 115 214 2 
E 115 277 6 
E 116 125 4 
E 116 267 6 
E 116 316 8 
E 116 421 2 
E 117 249 8 
E 117 400 4 
E 118 188 8 
E 119 228 10 
E 119 371 1 
E 120 165 9 
E 120 195 3 
E 120 199 5 
E 120 253 2 
E 121 187 9 
E 121 199 8 
E 121 249 2 
E 121 382 5 
E 122 202 2 
E 122 265 6 
E 122 333 6 
E 122 402 2 
E 123 144 7 
E 123 175 8 
E 123 483 5 
E 124 337 6 
E 125 490 8 
E 126 366 7 
E 126 388 7 
E 127 239 7 
E 127 350 3 
E 127 489 3 
E 128 399 4 
E 128 469 6 
E 129 332 6 
E 129 389 9 
E 129 416 1 
E 129 436 6 
E 130 173 6 
E 130 262 1 
E 130 409 4 
E 132 308 1 
E 132 377 6 
E 133 242 6 
E 133 329 1 
E 134 410 7 
E 134 472 5 
E 135 362 7 
E 135 491 9 
E 136 146 5 
E 136 154 4 
E 136 355 10 
E 136 379 6 
E 136 450 6 
E 137 145 5 
E 137 153 10 
E 137 172 2 
E 137 374 9 
E 137 482 4 
E 138 203 2 
E 138 246 4 
E 139 218 2 
E 139 378 5 
E 139 403 1 
E 139 442 8 
E 140 432 1 
E 141 436 3 
E 141 442 3 
E 142 333 8 
E 143 389 5 
E 144 146 7 
E 144 247 2 
E 144 305 6 
E 145 354 4 
E 145 415 7 
E 146 205 7 
E 146 267 10 
E 147 233 5 
E 147 474 2 
E 148 164 1 
E 148 271 7 
E 148 290 10 
E 148 490 4 
E 149 295 8 
E 149 381 9 
E 149 451 8 
E 149 498 1 
E 150 225 9 
E 150 398 10 
E 151 173 1 
E 151 177 1 
E 151 300 5 
E 151 317 6 
E 152 214 7 
E 152 237 5 
E 152 250 6 
E 152 407 2 
E 152 452 6 
E 152 457 3 
E 153 179 7 
E 153 241 2 
E 153 397 8 
E 154 364 10 
E 154 401 3 
E 154 425 10 
E 155 161 8 
E 155 224 5 
E 155 241 1 
E 155 243 10 
E 155 434 6 
E 156 192 9 
E 156 279 7 
E 157 434 7 
E 157 447 10 
E 158 319 4 
E 158 343 2 
E 159 170 1 
E 159 223 10 
E 159 260 7 
E 160 374 2 
E 161 310 1 
E 162 233 9 
E 162 320 3 
E 163 406 6 
E 164 203 10 
E 164 220 4 
E 164 273 1 
E 164 295 5 
E 164 370 6 
E 165 371 7 
E 165 430 10 
E 166 325 10 
E 166 408 8 
E 167 319 3 
E 167 453 10 
E 168 175 1 
E 168 342 9 
E 168 452 2 
E 168 463 10 
E 169 301 1 
E 169 357 9 
E 170 279 6 
E 170 453 6 
E 171 224 5 
E 171 226 9 
E 171 317 5 
E 171 341 4 
E 171 477 10 
E 172 202 7 
E 173 230 3 
E 174 360 6 
E 174 378 7 
E 175 496 5 
E 176 182 7 
E 176 240 5 
E 176 466 2 
E 177 196 8 
E 178 386 6 
E 178 405 8 
E 178 440 7 
E 178 488 7 
E 179 287 3 
E 179 392 5 
E 180 219 2 
E 180 326 5 
E 181 282 2 
E 181 283 1 
E 181 309 5 
E 181 384 9 
E 182 193 3 
E 182 270 6 
E 182 425 7 
E 182 497 9 
E 182 500 9 
E 183 189 5 
E 183 224 1 
E 183 479 9 
E 184 390 10 
E 185 230 3 
E 186 220 1 
E 187 355 10 
E 188 393 4 
E 189 308 5 
E 190 214 8 
E 190 416 6 
E 190 476 8 
E 191 277 1 
E 191 316 1 
E 191 458 6 
E 191 489 4 
E 192 239 5 
E 192 330 8 
E 192 342 1 
E 192 355 4 
E 192 402 10 
E 192 438 1 
E 192 440 8 
E 193 231 1 
E 193 401 5 
E 193 419 1 
E 194 220 8 
E 194 271 2 
E 194 415 6 
E 195 251 5 
E 195 378 5 
E 195 404 1 
E 196 222 2 
E 196 397 9 
E 196 424 8 
E 196 461 10 
E 197 409 2 
E 197 453 4 
E 198 299 3 
E 198 329 1 
E 198 387 4 
E 199 226 1 
E 200 216 2 
E 200 275 3 
E 200 367 6 
E 201 474 1 
E 202 387 8 
E 202 422 3 
E 202 471 9 
E 203 227 7 
E 204 217 7 
E 204 272 3 
E 204 392 4 
E 204 402 6 
E 205 309 9 
E 205 394 8 
E 205 427 1 
E 205 458 5 
E 205 475 8 
E 206 207 1 
E 206 260 10 
E 206 287 9 
E 206 337 5 
E 207 276 8 
E 207 449 3 
E 208 268 7 
E 208 425 9 
E 209 486 7 
E 211 403 3 
E 212 289 10 
E 212 350 9 
E 212 367 10 
E 212 441 5 
E 212 463 7 
E 213 401 10 
E 214 500 1 
E 215 254 9 
E 215 282 3 
E 215 403 5 
E 215 495 2 
E 216 346 6 
E 217 227 9 
E 217 301 9 
E 217 357 9 
E 218 227 7 
E 218 380 9 
E 218 426 1 
E 218 494 9 
E 219 343 8 
E 220 247 3 
E 221 323 2 
E 221 324 1 
E 221 334 6 
E 221 348 5 
E 221 366 3 
E 221 383 10 
E 221 417 1 
E 222 380 2 
E 222 401 6 
E 222 418 5 
E 223 427 9 
E 225 301 4 
E 225 355 1 
E 225 360 10 
E 227 415 6 
E 228 293 4 
E 228 438 1 
E 229 234 6 
E 229 327 1 
E 229 333 1 
E 229 384 4 
E 230 343 3 
E 230 444 4 
E 231 388 5 
E 231 408 1 
E 232 340 9 
E 232 343 2 
E 232 491 2 
E 235 396 7 
E 235 468 2 
E 235 492 9 
E 236 378 8 
E 236 435 10 
E 237 259 3 
E 237 264 6 
E 237 410 9 
E 237 425 8 
E 237 484 10 
E 237 495 8 
E 238 249 3 
E 238 314 7 
E 239 290 1 
E 239 453 9 
E 239 489 6 
E 240 387 9 
E 241 373 2 
E 241 480 6 
E 242 364 3 
E 242 444 5 
E 244 265 4 
E 244 416 5 
E 245 293 3 
E 245 325 1 
E 246 457 2 
E 246 489 3 
E 247 332 1 
E 247 334 1 
E 247 345 1 
E 247 392 7 
E 247 484 10 
E 248 369 8 
E 248 427 8 
E 249 355 2 
E 249 371 3 
E 249 390 8 
E 250 268 8 
E 251 360 1 
E 251 430 9 
E 251 444 2 
E 252 276 6 
E 252 500 6 
E 253 272 2 
E 255 286 5 
E 255 322 7 
E 255 395 1 
E 255 460 8 
E 256 464 1 
E 257 341 7 
E 258 329 1 
E 259 299 10 
E 259 414 8 
E 259 423 5 
E 259 447 7 
E 260 290 10 
E 261 430 7 
E 261 444 9 
E 261 500 6 
E 262 407 7 
E 263 361 1 
E 263 404 3 
E 265 474 3 
E 266 317 9 
E 267 279 3 
E 267 292 4 
E 267 427 5 
E 268 329 9 
E 269 289 5 
E 269 314 2 
E 269 345 10 
E 269 359 7 
E 269 452 1 
E 270 338 1 
E 270 387 2 
E 272 346 6 
E 272 354 5 
E 272 386 4 
E 272 429 9 
E 273 496 5 
E 275 279 9 
E 275 371 3 
E 275 376 7 
E 276 473 10 
E 277 344 2 
E 278 361 6 
E 280 291 10 
E 280 344 8 
E 280 438 5 
E 280 440 10 
E 281 289 5 
E 281 363 6 
E 283 322 4 
E 283 345 2 
E 283 434 5 
E 283 475 5 
E 284 330 10 
E 284 487 6 
E 285 332 9 
E 286 381 10 
E 286 382 8 
E 286 417 8 
E 286 462 6 
E 287 387 7 
E 287 397 1 
E 288 418 6 
E 289 377 5 
E 289 435 8 
E 290 331 10 
E 290 354 9 
E 291 305 7 
E 291 315 9 
E 291 329 8 
E 291 356 5 
E 291 450 7 
E 291 473 5 
E 293 399 7 
E 294 424 9 
E 294 475 6 
E 295 365 6 
E 295 442 6 
E 296 334 7 
E 296 447 7 
E 296 492 4 
E 297 333 1 
E 297 442 1 
E 300 308 10 
E 300 464 7 
E 301 312 6 
E 301 341 2 
E 301 355 4 
E 301 362 6 
E 301 386 1 
E 301 400 7 
E 301 445 7 
E 302 328 7 
E 302 491 1 
E 303 369 1 
E 304 482 8 
E 304 486 9 
E 305 339 7 
E 306 386 3 
E 308 412 4 
E 308 428 3 
E 308 445 6 
E 310 371 3 
E 310 404 1 
E 310 431 10 
E 311 362 2 
E 313 316 1 
E 313 367 5 
E 313 368 10 
E 314 354 8 
E 316 457 8 
E 317 428 8 
E 318 342 3 
E 318 370 4 
E 318 377 1 
E 318 459 7 
E 318 490 4 
E 319 435 2 
E 319 487 7 
E 320 342 5 
E 320 431 3 
E 321 347 1 
E 322 325 2 
E 322 337 8 
E 322 384 10 
E 324 412 3 
E 325 328 5 
E 325 331 8 
E 325 428 4 
E 325 471 8 
E 326 425 7 
E 326 426 8 
E 327 392 6 
E 327 437 8 
E 329 476 10 
E 330 405 9 
E 331 360 10 
E 332 413 2 
E 332 456 9 
E 332 480 8 
E 334 388 8 
E 334 454 10 
E 334 480 6 
E 335 392 2 
E 335 409 8 
E 336 410 4 
E 336 438 1 
E 338 473 9 
E 339 388 6 
E 340 382 4 
E 340 427 1 
E 340 430 10 
E 341 435 5 
E 341 478 10 
E 342 468 5 
E 343 403 9 
E 345 499 2 
E 346 372 5 
E 346 445 7 
E 347 453 6 
E 347 464 10 
E 348 364 7 
E 349 448 1 
E 350 378 5 
E 351 446 3 
E 351 489 6 
E 352 375 5 
E 353 407 4 
E 353 420 5 
E 354 389 8 
E 354 407 1 
E 356 459 3 
E 360 419 10 
E 361 455 3 
E 361 499 7 
E 362 446 7 
E 363 401 10 
E 363 495 7 
E 364 427 10 
E 364 498 4 
E 366 425 6 
E 367 380 3 
E 367 486 10 
E 367 491 2 
E 367 498 10 
E 372 444 4 
E 374 393 6 
E 374 411 9 
E 376 498 3 
E 382 477 8 
E 384 443 7 
E 384 470 10 
E 385 471 4 
E 388 439 5 
E 388 459 2 
E 389 405 2 
E 389 439 9 
E 391 393 4 
E 392 405 7 
E 393 394 5 
E 393 437 1 
E 393 478 2 
E 396 397 5 
E 396 408 1 
E 397 424 1 
E 397 440 5 
E 399 421 3 
E 399 438 7 
E 402 425 9 
E 406 475 5 
E 407 421 5 
E 408 433 7 
E 412 421 6 
E 413 467 7 
E 414 457 5 
E 415 482 10 
E 418 432 10 
E 418 487 5 
E 419 484 10 
E 421 485 5 
E 425 432 3 
E 425 468 6 
E 426 486 3 
E 430 440 7 
E 430 493 1 
E 433 440 7 
E 438 449 2 
E 439 479 8 
E 440 475 9 
E 440 498 5 
E 447 474 4 
E 448 484 5 
E 451 500 2 
E 452 455 2 
E 455 489 7 
E 458 483 8 
E 462 468 5 
E 463 488 10 
E 467 475 8 
E 477 491 7 
E 481 498 2 
E 482 488 8 
E 482 490 3 
E 487 498 3 
E 488 490 1 
E 488 499 6 
END 

SECTION ProfitableVertices 
ProfitableVertices 250 
PV 1 44
PV 11 97
PV 12 8
PV 13 38
PV 18 6
PV 21 33
PV 22 85
PV 23 1
PV 24 23
PV 26 61
PV 28 26
PV 34 1
PV 35 33
PV 36 77
PV 37 59
PV 39 30
PV 41 35
PV 42 75
PV 43 59
PV 44 42
PV 45 17
PV 46 3
PV 47 78
PV 52 98
PV 53 70
PV 54 4
PV 55 55
PV 56 74
PV 57 88
PV 60 70
PV 61 58
PV 63 44
PV 65 93
PV 66 31
PV 67 50
PV 68 16
PV 73 93
PV 74 72
PV 75 71
PV 77 86
PV 80 4
PV 82 34
PV 83 56
PV 84 50
PV 88 68
PV 89 7
PV 90 93
PV 92 42
PV 93 45
PV 95 80
PV 98 25
PV 99 55
PV 100 84
PV 101 94
PV 105 73
PV 110 30
PV 113 26
PV 116 5
PV 118 32
PV 119 8
PV 120 67
PV 121 6
PV 122 32
PV 123 24
PV 124 63
PV 126 22
PV 127 67
PV 130 6
PV 133 94
PV 135 77
PV 139 98
PV 141 90
PV 145 37
PV 150 34
PV 153 6
PV 156 3
PV 158 76
PV 159 67
PV 160 76
PV 161 77
PV 162 56
PV 164 24
PV 166 31
PV 167 57
PV 168 62
PV 169 41
PV 170 7
PV 175 33
PV 176 69
PV 177 6
PV 178 65
PV 179 33
PV 181 15
PV 183 9
PV 185 75
PV 190 68
PV 198 62
PV 200 13
PV 201 66
PV 202 10
PV 203 62
PV 206 4
PV 209 90
PV 211 69
PV 212 41
PV 214 47
PV 216 16
PV 217 58
PV 218 55
PV 219 10
PV 220 22
PV 221 20
PV 222 49
PV 223 14
PV 224 63
PV 225 73
PV 228 45
PV 229 82
PV 234 37
PV 236 23
PV 237 58
PV 238 13
PV 241 55
PV 244 53
PV 245 78
PV 247 23
PV 248 80
PV 249 27
PV 250 55
PV 251 63
PV 253 2
PV 254 30
PV 255 79
PV 260 12
PV 262 91
PV 264 56
PV 266 59
PV 268 92
PV 269 69
PV 271 88
PV 275 61
PV 276 93
PV 278 38
PV 279 45
PV 280 1
PV 281 2
PV 282 85
PV 284 16
PV 287 14
PV 288 5
PV 290 65
PV 291 47
PV 292 29
PV 294 20
PV 295 90
PV 296 82
PV 300 77
PV 301 81
PV 302 74
PV 303 62
PV 309 51
PV 310 90
PV 311 85
PV 322 47
PV 323 3
PV 327 39
PV 330 88
PV 331 11
PV 333 62
PV 337 54
PV 338 97
PV 341 9
PV 342 40
PV 343 99
PV 351 41
PV 352 66
PV 353 34
PV 354 92
PV 356 70
PV 359 71
PV 360 89
PV 361 50
PV 362 12
PV 363 88
PV 364 13
PV 365 17
PV 367 43
PV 368 65
PV 369 40
PV 370 66
PV 372 43
PV 375 69
PV 376 97
PV 377 86
PV 378 28
PV 379 98
PV 380 66
PV 381 74
PV 382 93
PV 383 32
PV 384 41
PV 385 3
PV 386 54
PV 389 97
PV 390 94
PV 391 79
PV 393 65
PV 394 17
PV 397 13
PV 399 91
PV 402 96
PV 405 22
PV 407 80
PV 409 41
PV 410 66
PV 411 77
PV 414 28
PV 416 74
PV 418 19
PV 422 34
PV 425 55
PV 427 39
PV 428 63
PV 429 4
PV 433 26
PV 436 19
PV 444 99
PV 447 33
PV 448 38
PV 449 84
PV 450 5
PV 454 83
PV 463 94
PV 464 94
PV 465 29
PV 468 15
PV 469 24
PV 470 26
PV 473 97
PV 474 65
PV 475 18
PV 477 84
PV 478 74
PV 481 11
PV 484 37
PV 486 53
PV 489 43
PV 490 43
PV 491 61
PV 497 19
END 

EOF 
